3 100 1604
8 10 6 8 10 7 9 8 8 7
1 2 3
4
1 9
4 5 7
0 35.0 35.0 0.0 0.0 0 230
2 41.0 49.0 10.0 10.0 0 204 97 1 0 0 0 0 0 0 0 0 0
3 35.0 17.0 10.0 7.0 0 202 46 0 1 0 1 0 0 0 0 0 1
4 55.0 45.0 10.0 13.0 0 197 60 0 0 0 0 0 1 0 0 0 0
5 55.0 20.0 10.0 19.0 149 159 8 0 1 0 0 0 1 0 0 0 0
6 15.0 30.0 10.0 26.0 0 199 91 0 0 0 0 0 0 1 0 0 1
7 25.0 30.0 10.0 3.0 99 109 67 0 0 1 0 0 0 0 0 0 1
8 20.0 50.0 10.0 5.0 0 198 18 0 0 0 0 0 1 0 0 0 0
9 10.0 43.0 10.0 9.0 95 105 86 0 0 0 0 1 0 0 0 0 0
10 55.0 60.0 10.0 16.0 97 107 16 0 0 0 0 0 0 1 0 1 0
11 30.0 60.0 10.0 16.0 124 134 45 0 0 0 0 0 1 0 0 0 0
12 20.0 65.0 10.0 12.0 67 77 26 0 0 0 1 1 0 0 1 1 1
13 50.0 35.0 10.0 19.0 0 205 45 0 0 0 0 1 0 1 0 0 1
14 30.0 25.0 10.0 23.0 159 169 61 0 1 1 0 0 0 0 0 1 0
15 15.0 10.0 10.0 20.0 0 187 86 1 0 0 0 0 0 0 1 0 0
16 30.0 5.0 10.0 8.0 61 71 50 0 0 0 0 0 0 0 1 1 0
17 10.0 20.0 10.0 19.0 0 190 93 0 0 0 1 0 0 0 0 0 1
18 5.0 30.0 10.0 2.0 157 167 23 0 0 0 0 0 0 0 0 0 1
19 20.0 40.0 10.0 12.0 0 204 85 0 1 0 0 1 0 0 0 0 0
20 15.0 60.0 10.0 17.0 0 187 21 0 0 0 0 0 0 0 0 1 0
21 45.0 65.0 10.0 9.0 0 188 77 0 1 0 1 0 1 0 0 0 1
22 45.0 20.0 10.0 11.0 0 201 2 0 1 0 0 0 1 0 1 0 0
23 45.0 10.0 10.0 18.0 97 107 82 0 0 1 1 0 1 1 0 0 1
24 55.0 5.0 10.0 29.0 68 78 55 0 0 0 0 0 0 1 0 0 1
25 65.0 35.0 10.0 3.0 0 190 27 0 0 0 0 0 1 0 0 0 0
26 65.0 20.0 10.0 6.0 172 182 86 0 0 0 0 0 1 0 0 0 0
27 45.0 30.0 10.0 17.0 0 208 67 1 0 0 0 1 0 0 0 1 0
28 35.0 40.0 10.0 16.0 37 47 41 0 0 1 1 1 0 0 0 1 0
29 41.0 37.0 10.0 16.0 0 213 74 1 1 0 0 0 0 0 0 0 0
30 64.0 42.0 10.0 9.0 0 190 24 0 1 0 0 0 0 1 0 0 0
31 40.0 60.0 10.0 21.0 71 81 88 0 0 0 0 1 0 0 0 0 0
32 31.0 52.0 10.0 27.0 0 202 39 0 1 0 0 0 0 1 0 0 0
33 35.0 69.0 10.0 23.0 0 186 33 0 0 0 0 0 1 0 0 0 0
34 53.0 52.0 10.0 11.0 37 47 28 0 0 1 0 0 0 0 0 0 0
35 65.0 55.0 10.0 14.0 0 183 97 1 0 0 0 1 1 1 1 0 0
36 63.0 65.0 10.0 8.0 143 153 43 0 0 1 0 0 0 0 0 1 0
37 2.0 60.0 10.0 5.0 41 51 72 1 0 0 0 0 0 0 0 0 0
38 20.0 20.0 10.0 8.0 0 198 25 0 0 0 1 0 0 0 0 0 0
39 5.0 5.0 10.0 16.0 83 93 35 1 0 0 0 0 0 0 0 0 1
40 60.0 12.0 10.0 31.0 44 54 38 0 1 0 0 1 1 0 0 0 0
41 40.0 25.0 10.0 9.0 85 95 30 0 0 0 0 0 1 0 0 0 0
42 42.0 7.0 10.0 5.0 97 107 90 0 0 0 0 1 0 0 0 0 0
43 24.0 12.0 10.0 5.0 31 41 99 0 1 0 0 0 1 1 0 0 1
44 23.0 3.0 10.0 7.0 0 185 62 1 0 1 0 0 0 0 0 0 1
45 11.0 14.0 10.0 18.0 69 79 62 0 0 0 0 0 1 0 0 1 0
46 6.0 38.0 10.0 16.0 32 42 48 0 0 1 1 0 1 0 0 0 0
47 2.0 48.0 10.0 1.0 0 184 91 0 0 0 0 0 0 0 1 0 1
48 8.0 56.0 10.0 27.0 0 185 66 0 0 0 1 0 0 0 1 0 0
49 13.0 52.0 10.0 36.0 0 192 42 1 1 0 0 0 0 0 0 0 0
50 6.0 68.0 10.0 30.0 108 118 33 0 0 0 0 0 1 0 0 0 0
51 47.0 47.0 10.0 13.0 0 203 78 1 0 1 0 0 0 0 0 0 0
52 49.0 58.0 10.0 10.0 0 193 7 0 0 0 1 0 1 0 0 1 0
53 27.0 43.0 10.0 9.0 0 208 13 1 1 1 0 0 0 0 0 0 0
54 37.0 31.0 10.0 14.0 95 105 7 0 1 0 1 0 0 0 0 0 0
55 57.0 29.0 10.0 18.0 0 197 15 0 0 0 0 0 0 1 1 1 0
56 63.0 23.0 10.0 2.0 136 146 51 0 0 0 0 0 1 0 0 0 0
57 53.0 12.0 10.0 6.0 130 140 64 0 0 0 1 0 0 1 0 0 1
58 32.0 12.0 10.0 7.0 0 196 15 0 0 0 1 0 0 1 1 0 0
59 36.0 26.0 10.0 18.0 200 210 40 0 0 0 0 0 1 0 0 0 0
60 21.0 24.0 10.0 28.0 0 202 24 0 1 0 0 0 1 0 0 0 0
61 17.0 34.0 10.0 3.0 0 201 50 1 1 0 0 1 0 0 0 0 0
62 12.0 24.0 10.0 13.0 0 194 78 0 0 0 1 1 0 1 1 0 0
63 24.0 58.0 10.0 19.0 58 68 73 1 1 1 0 0 0 0 0 0 0
64 27.0 69.0 10.0 10.0 0 185 88 0 1 0 0 0 0 0 1 0 0
65 15.0 77.0 10.0 9.0 73 83 38 0 0 0 0 0 0 0 1 0 0
66 62.0 77.0 10.0 20.0 51 61 78 0 0 0 0 1 0 0 0 0 0
67 49.0 73.0 10.0 25.0 127 137 97 0 0 0 0 0 1 0 0 0 0
68 67.0 5.0 10.0 25.0 83 93 60 0 0 0 1 0 0 0 0 0 0
69 56.0 39.0 10.0 36.0 142 152 18 0 1 0 0 0 0 0 1 1 0
70 37.0 47.0 10.0 6.0 50 60 94 0 0 0 0 0 0 0 1 0 0
71 37.0 56.0 10.0 5.0 182 192 98 0 0 0 0 0 1 0 0 0 0
72 57.0 68.0 10.0 15.0 0 180 12 0 0 0 0 0 1 1 1 0 0
73 47.0 16.0 10.0 25.0 0 197 38 0 0 1 0 0 0 0 1 0 0
74 44.0 17.0 10.0 9.0 0 199 51 0 0 0 0 0 0 0 0 1 0
75 46.0 13.0 10.0 8.0 149 159 18 0 0 0 1 0 0 0 1 0 0
76 49.0 11.0 10.0 18.0 0 192 17 1 0 1 0 1 0 0 0 0 0
77 49.0 42.0 10.0 13.0 73 83 58 0 0 0 0 0 1 0 1 0 1
78 53.0 43.0 10.0 14.0 179 189 54 0 0 0 0 0 1 0 0 0 0
79 61.0 52.0 10.0 3.0 96 106 97 0 0 0 0 0 1 0 0 0 0
80 57.0 48.0 10.0 23.0 92 102 2 0 0 0 0 0 1 0 0 0 0
81 56.0 37.0 10.0 6.0 182 192 76 0 0 0 0 1 0 1 0 0 0
82 55.0 54.0 10.0 26.0 0 192 51 0 1 0 0 1 1 0 0 0 0
83 15.0 47.0 10.0 16.0 0 196 89 1 0 0 0 0 0 0 0 0 1
84 14.0 37.0 10.0 11.0 0 198 56 0 0 0 0 1 0 1 0 0 0
85 11.0 31.0 10.0 7.0 101 111 42 0 0 1 0 0 1 0 0 1 0
86 16.0 22.0 10.0 41.0 0 196 45 0 0 0 1 0 0 0 0 0 0
87 4.0 18.0 10.0 35.0 0 184 12 0 0 1 0 1 0 0 0 0 0
88 28.0 18.0 10.0 26.0 93 103 64 0 0 0 0 1 0 0 0 0 0
89 26.0 52.0 10.0 9.0 74 84 92 0 0 0 1 0 0 1 1 0 1
90 26.0 35.0 10.0 15.0 0 211 53 1 0 0 1 1 1 0 0 0 0
91 31.0 67.0 10.0 3.0 0 187 13 0 0 0 0 1 0 0 0 0 0
92 15.0 19.0 10.0 1.0 0 194 0 0 0 0 0 0 1 0 0 0 0
93 22.0 22.0 10.0 2.0 18 28 59 1 0 0 1 0 0 1 0 1 0
94 18.0 24.0 10.0 22.0 188 198 78 0 1 0 0 1 0 0 0 0 0
95 26.0 27.0 10.0 27.0 0 207 20 1 1 0 0 0 0 0 1 1 0
96 25.0 24.0 10.0 20.0 0 205 55 1 0 1 0 1 0 1 1 0 0
97 22.0 27.0 10.0 11.0 0 204 54 0 0 0 1 0 0 0 0 0 0
98 25.0 21.0 10.0 12.0 0 202 86 0 0 0 1 1 0 1 0 0 1
99 19.0 21.0 10.0 10.0 0 198 24 0 0 0 0 0 0 1 0 1 0
100 20.0 26.0 10.0 9.0 83 93 43 1 1 0 0 0 0 0 0 0 0
101 18.0 18.0 10.0 17.0 185 195 34 0 0 0 0 0 1 0 1 0 1